
--- Job Optimization_Model.gms Start 05/29/20 15:16:48 24.2.3 r46072 WEX-WEI x86_64/MS Windows
GAMS 24.2.3   Copyright (C) 1987-2014 GAMS Development. All rights reserved
Licensee: Utah Water Research Laboratory (5 user)        G140130:1517AV-GEN
          Utah State University                                      DC7087
          License for teaching and research at degree granting institutions
--- Starting compilation
--- Optimization_Model.gms(112) 3 Mb
--- call gdxxrw.exe I=INPUT.xlsx O=INPUT.gdx par=distance rng=distance!A1:MK349 Rdim=1 Cdim=1  par=cost rng=cost!A1:B348 Rdim=1 par=penalty rng=penalty!A1:MK349 Rdim=1 Cdim=1 par=A rng=A!A1:M349 Rdim=1 Cdim=1  par=economic_costs rng=economic!A1:N349 Rdim=

GDXXRW           24.2.3 r46072 Released May 22, 2014 VS8 x86/MS Windows       
Input file : C:\Rosenberg\Work\USU\Students\__Finished\KraftMaggi\GitHub\Optimizing-Stream-Barrier-Removal\INPUT.xlsx
Output file: C:\Rosenberg\Work\USU\Students\__Finished\KraftMaggi\GitHub\Optimizing-Stream-Barrier-Removal\INPUT.gdx
Total time = 3703 Ms
--- Optimization_Model.gms(115) 3 Mb
--- call gdxxrw.exe I=INPUT_PATH_UP.xlsx O=INPUT_PATH_UP.gdx par=Sheet1 rng=path_up!A1:ML121105 Rdim=2 Cdim=1

GDXXRW           24.2.3 r46072 Released May 22, 2014 VS8 x86/MS Windows       
**** Input file not found = C:\Rosenberg\Work\USU\Students\__Finished\KraftMaggi\GitHub\Optimizing-Stream-Barrier-Removal\INPUT_PATH_UP.xlsx
Total time = 1969 Ms
--- Optimization_Model.gms(136) 3 Mb
--- GDXin=C:\Rosenberg\Work\USU\Students\__Finished\KraftMaggi\GitHub\Optimizing-Stream-Barrier-Removal\INPUT.gdx
--- Optimization_Model.gms(155) 18 Mb
--- GDXin=C:\Rosenberg\Work\USU\Students\__Finished\KraftMaggi\GitHub\Optimizing-Stream-Barrier-Removal\INPUT_PATH_UP.gdx
--- Optimization_Model.gms(306) 153 Mb
--- Starting execution: elapsed 0:00:06.856
--- Optimization_Model.gms(250) 158 Mb
--- Generating MIP model CONNECTIVITY
--- Optimization_Model.gms(267) 448 Mb
--- LOOPS mn = 8
---       w = w34
---       scenarios = S8
---       rad_infl = r4
---   121,108 rows  60,729 columns  4,242,822 non-zeroes
---   60,726 discrete-columns
--- Executing CPLEX: elapsed 0:00:08.705

IBM ILOG CPLEX   24.2.3 r46072 Released May 22, 2014 WEI x86_64/MS Windows    
--- GAMS/Cplex Link licensed for continuous and discrete problems.
Cplex 12.6.0.0

Reading data...
Starting Cplex...
Space for names approximately 4.17 Mb
Use option 'names no' to turn use of names off
Found incumbent of value 0.099639 after 0.03 sec. (34.76 ticks)
Tried aggregator 2 times.
MIP Presolve eliminated 105696 rows and 44978 columns.
MIP Presolve modified 15752 coefficients.
Aggregator did 340 substitutions.
Reduced MIP has 15072 rows, 15411 columns, and 298638 nonzeros.
Reduced MIP has 15411 binaries, 0 generals, 0 SOSs, and 0 indicators.
Presolve time = 0.67 sec. (534.05 ticks)
Probing time = 0.02 sec. (19.48 ticks)
Tried aggregator 1 time.
Reduced MIP has 15072 rows, 15411 columns, and 298638 nonzeros.
Reduced MIP has 15411 binaries, 0 generals, 0 SOSs, and 0 indicators.
Presolve time = 0.06 sec. (86.16 ticks)
Probing time = 0.02 sec. (19.48 ticks)
Clique table members: 164780.
MIP emphasis: balance optimality and feasibility.
MIP search method: dynamic search.
Parallel mode: none, using 1 thread.
Tried aggregator 1 time.
LP Presolve eliminated 15071 rows and 15074 columns.
Reduced LP has 1 rows, 337 columns, and 337 nonzeros.
Presolve time = 0.02 sec. (44.26 ticks)

Iteration log . . .
Iteration:     1   Dual objective     =             0.128959
Initializing dual steep norms . . .
Root relaxation solution time = 0.05 sec. (56.30 ticks)

        Nodes                                         Cuts/
   Node  Left     Objective  IInf  Best Integer    Best Bound    ItCnt     Gap

*     0+    0                            0.0996        0.2026        1  103.32%
Found incumbent of value 0.099639 after 2.22 sec. (2861.05 ticks)
      0     0        0.1290  1994        0.0996        0.1290        1   29.43%
*     0+    0                            0.1218        0.1290        1    5.92%
Found incumbent of value 0.121753 after 2.27 sec. (2918.45 ticks)
      0     0        0.1250   173        0.1218     Cuts: 810     1665    2.66%
*     0+    0                            0.1229        0.1250     1665    1.71%
Found incumbent of value 0.122890 after 3.09 sec. (4530.86 ticks)
*     0+    0                            0.1230        0.1250     1665    1.58%
Found incumbent of value 0.123040 after 3.11 sec. (4558.75 ticks)
      0     0        0.1244     9        0.1230     Cuts: 162     1814    1.12%
*     0+    0                            0.1242        0.1244     1814    0.18%
Found incumbent of value 0.124186 after 3.20 sec. (4698.10 ticks)

Repeating presolve.
Tried aggregator 2 times.
MIP Presolve eliminated 14998 rows and 15307 columns.
MIP Presolve modified 50 coefficients.
Aggregator did 9 substitutions.
Reduced MIP has 65 rows, 95 columns, and 266 nonzeros.
Reduced MIP has 95 binaries, 0 generals, 0 SOSs, and 0 indicators.
Presolve time = 0.02 sec. (23.19 ticks)
Probing fixed 23 vars, tightened 0 bounds.
Probing time = 0.00 sec. (0.21 ticks)
Tried aggregator 1 time.
MIP Presolve eliminated 23 rows and 25 columns.
Reduced MIP has 42 rows, 70 columns, and 170 nonzeros.
Reduced MIP has 70 binaries, 0 generals, 0 SOSs, and 0 indicators.
Presolve time = 0.00 sec. (0.85 ticks)
Probing time = 0.00 sec. (0.12 ticks)
Tried aggregator 1 time.
Reduced MIP has 42 rows, 70 columns, and 170 nonzeros.
Reduced MIP has 70 binaries, 0 generals, 0 SOSs, and 0 indicators.
Presolve time = 0.00 sec. (0.79 ticks)
Represolve time = 0.06 sec. (161.38 ticks)
Probing time = 0.00 sec. (0.12 ticks)
Clique table members: 212.
MIP emphasis: balance optimality and feasibility.
MIP search method: dynamic search.
Parallel mode: none, using 1 thread.
Tried aggregator 1 time.
LP Presolve eliminated 12 rows and 10 columns.
Reduced LP has 76 rows, 60 columns, and 248 nonzeros.
Presolve time = 0.00 sec. (0.05 ticks)

Iteration log . . .
Iteration:     1   Dual objective     =             0.126845
Initializing dual steep norms . . .
Root relaxation solution time = 0.00 sec. (0.29 ticks)

        Nodes                                         Cuts/
   Node  Left     Objective  IInf  Best Integer    Best Bound    ItCnt     Gap

*     0+    0                            0.1242        0.1244     1858    0.18%
Found incumbent of value 0.124186 after 3.42 sec. (5150.91 ticks)
      0     0        0.1244     7        0.1242        0.1244     1858    0.18%
      0     0        0.1242     8        0.1242      Cuts: 10     1866    0.02%
      0     0        cutoff              0.1242                   1867    0.00%
Elapsed time = 3.42 sec. (5151.65 ticks, tree = 0.00 MB, solutions = 6)

Clique cuts applied:  23
Cover cuts applied:  30
Implied bound cuts applied:  6
Flow cuts applied:  1
Mixed integer rounding cuts applied:  4
Zero-half cuts applied:  10
Gomory fractional cuts applied:  3

Root node processing (before b&c):
  Real time             =    3.44 sec. (5155.38 ticks)
Sequential b&c:
  Real time             =    0.00 sec. (0.00 ticks)
                          ------------
Total (root+branch&cut) =    3.44 sec. (5155.38 ticks)
MIP status(101): integer optimal solution
Cplex Time: 3.44sec (det. 5155.55 ticks)
Fixing integer variables, and solving final LP...
Tried aggregator 1 time.
LP Presolve eliminated 121108 rows and 60729 columns.
All rows and columns eliminated.
Presolve time = 0.19 sec. (181.32 ticks)
Fixed MIP status(1): optimal
Cplex Time: 0.27sec (det. 284.77 ticks)

Proven optimal solution.

MIP Solution:            0.124186    (1867 iterations, 0 nodes)
Final Solve:             0.124186    (0 iterations)

Best possible:           0.124186
Absolute gap:            0.000000
Relative gap:            0.000000

--- Restarting execution
--- Optimization_Model.gms(267) 162 Mb
--- Reading solution for model CONNECTIVITY
--- Optimization_Model.gms(267) 172 Mb
--- Executing after solve: elapsed 0:00:13.826
--- Optimization_Model.gms(296) 173 Mb

GDXXRW           24.2.3 r46072 Released May 22, 2014 VS8 x86/MS Windows       
Input file : C:\Rosenberg\Work\USU\Students\__Finished\KraftMaggi\GitHub\Optimizing-Stream-Barrier-Removal\barriers_removed.gdx
Output file: C:\Rosenberg\Work\USU\Students\__Finished\KraftMaggi\GitHub\Optimizing-Stream-Barrier-Removal\barriers_removed.xlsx
Total time = 2172 Ms
--- Optimization_Model.gms(298) 173 Mb

GDXXRW           24.2.3 r46072 Released May 22, 2014 VS8 x86/MS Windows       
Input file : C:\Rosenberg\Work\USU\Students\__Finished\KraftMaggi\GitHub\Optimizing-Stream-Barrier-Removal\Results.gdx
Output file: C:\Rosenberg\Work\USU\Students\__Finished\KraftMaggi\GitHub\Optimizing-Stream-Barrier-Removal\Results.xlsx
Total time = 2250 Ms
--- Optimization_Model.gms(300) 173 Mb

GDXXRW           24.2.3 r46072 Released May 22, 2014 VS8 x86/MS Windows       
Input file : C:\Rosenberg\Work\USU\Students\__Finished\KraftMaggi\GitHub\Optimizing-Stream-Barrier-Removal\quality_length.gdx
Output file: C:\Rosenberg\Work\USU\Students\__Finished\KraftMaggi\GitHub\Optimizing-Stream-Barrier-Removal\quality_length.xlsx
Total time = 2250 Ms
--- Optimization_Model.gms(302) 173 Mb

GDXXRW           24.2.3 r46072 Released May 22, 2014 VS8 x86/MS Windows       
Input file : C:\Rosenberg\Work\USU\Students\__Finished\KraftMaggi\GitHub\Optimizing-Stream-Barrier-Removal\reaches.gdx
Output file: C:\Rosenberg\Work\USU\Students\__Finished\KraftMaggi\GitHub\Optimizing-Stream-Barrier-Removal\reaches.xlsx
Total time = 2235 Ms
--- Optimization_Model.gms(304) 173 Mb

GDXXRW           24.2.3 r46072 Released May 22, 2014 VS8 x86/MS Windows       
Input file : C:\Rosenberg\Work\USU\Students\__Finished\KraftMaggi\GitHub\Optimizing-Stream-Barrier-Removal\economicloss.gdx
Output file: C:\Rosenberg\Work\USU\Students\__Finished\KraftMaggi\GitHub\Optimizing-Stream-Barrier-Removal\economicloss.xlsx
Total time = 2219 Ms
--- Optimization_Model.gms(306) 173 Mb

GDXXRW           24.2.3 r46072 Released May 22, 2014 VS8 x86/MS Windows       
Input file : C:\Rosenberg\Work\USU\Students\__Finished\KraftMaggi\GitHub\Optimizing-Stream-Barrier-Removal\spent.gdx
Output file: C:\Rosenberg\Work\USU\Students\__Finished\KraftMaggi\GitHub\Optimizing-Stream-Barrier-Removal\spent.xlsx
Total time = 2218 Ms
*** Status: Normal completion
--- Job Optimization_Model.gms Stop 05/29/20 15:17:16 elapsed 0:00:27.820
